c turning on binary mode checking
c parsing input formula with 202048 variables and 780980 clauses
c finished parsing, read 16700012 bytes from proof file
c detected empty clause; start verification via backward checking
c 10779 of 780980 clauses in core                            
c 13966 of 452602 lemmas in core using 88634 resolution steps
c 0 RAT lemmas in core; 814 redundant literals in core lemmas
s VERIFIED
c verification time: 1.803 seconds
